NAME: test1736
TYPE: TSP
DIMENSION: 11
EDGE_WEIGHT_TYPE: EUC_2D
NODE_COORD_SECTION
1 55.07423238850495 12.127091545962731
2 73.77419925002818 23.561849224611752
3 6.909197102831333 93.49897865864448
4 51.57527617491441 78.10907741443877
5 93.0688077433538 5.392774528762178
6 63.6089180124763 52.660140486616626
7 65.37623443497071 44.80326240179966
8 59.36013175796674 91.25112264961895
9 85.36693972894844 93.37582826634439
10 82.00649075800426 66.08100238186681
11 50.829227052424365 42.73841182902937
EOF
